n=10;
m=35;
k=6;
initial_edges=[
(1, 9),
(1, 3),
(1, 5),
(1, 6),
(1, 7),
(1, 10),
(2, 5),
(2, 10),
(2, 4),
(2, 7),
(2, 3),
(2, 6),
(2, 8),
(3, 7),
(3, 5),
(3, 9),
(3, 4),
(3, 6),
(4, 7),
(4, 10),
(4, 6),
(4, 8),
(4, 9),
(4, 5),
(5, 9),
(5, 8),
(5, 6),
(6, 8),
(6, 9),
(6, 7),
(7, 8),
(7, 10),
(8, 9),
(8, 10),
(9, 10),
];